StringID     Type         x            y            demand       ReadyTime    DueDate      ServiceTime  PartnerID
D0           d            90.0         95.0         0.0          0.0          950.0        4.0          0
C1           cp           20.0         30.0         35.0         45.0         622.0        14.0         C10
C2           cp           -41.0        17.0         35.0         42.0         633.0        15.0         C11
C3           cp           88.0         19.0         45.0         47.0         625.0        16.0         C12
C4           cp           77.0         -24.0        50.0         43.0         642.0        13.0         C13
C5           cp           16.0         66.0         45.0         45.0         639.0        17.0         C14
C6           cp           -21.0        23.0         50.0         44.0         655.0        15.0         C15
C7           cp           99.0         11.0         55.0         46.0         652.0        14.0         C16
C8           cp           63.0         -25.0        55.0         42.0         660.0        16.0         C17
C9           cp           43.0         43.0         40.0         45.0         665.0        16.0         C18
C10          cd           17.0         24.0         -35.0        73.0         863.0        15.0         C1
C11          cd           -40.0        66.0         -35.0        78.0         861.0        17.0         C2
C12          cd           11.0         99.0         -45.0        74.0         863.0        15.0         C3
C13          cd           12.0         -40.0        -50.0        75.0         862.0        14.0         C4
C14          cd           68.0         23.0         -45.0        74.0         864.0        13.0         C5
C15          cd           -14.0        31.0         -50.0        77.0         863.0        17.0         C6
C16          cd           92.0         25.0         -55.0        76.0         867.0        15.0         C7
C17          cd           -33.0        -17.0        -55.0        73.0         865.0        12.0         C8
C18          cd           16.0         55.0         -40.0        75.0         862.0        16.0         C9

VehicleCount : 1
VehiclePerCapacity:   60
VehicleMaxTrolleyCount: 2
TrolleyImpactRate: 20.0
EarlinessPenalty: 10
TardinessPenalty: 10
